1 -590 -593 0
-590 -591 -593 0
-23 590 -593 0
572 23 590 -591 0
-591 -593 0
d -590 -591 -593 0
1 122 -19 23 0
590 -592 -593 0
-592 -593 0
d 590 -592 -593 0
-590 -593 0
d 1 -590 -593 0
-593 0
23 590 0
d 572 -591 590 23 0
1 590 0
590 0
-1 -23 0
-23 0
22 0
-1 0
-568 0
-44 0
572 0
0
